100
125 125
1 87 577
2 87 823
3 87 346
4 86 983
5 84 4
6 83 387
7 82 604
8 81 723
9 81 498
10 81 425
11 80 104
12 79 793
13 79 396
14 78 243
15 77 999
16 77 724
17 77 21
18 77 329
19 76 197
20 74 192
21 73 773
22 73 871
23 68 168
24 68 163
25 66 603
26 66 747
27 66 856
28 65 848
29 65 932
30 64 793
31 63 411
32 63 538
33 62 929
34 61 399
35 61 62
36 61 796
37 60 823
38 59 350
39 58 809
40 56 785
41 56 865
42 55 570
43 55 41
44 55 627
45 53 842
46 53 734
47 53 882
48 52 571
49 51 374
50 51 539
51 49 269
52 48 260
53 46 474
54 46 543
55 45 324
56 44 916
57 44 207
58 42 294
59 42 229
60 41 274
61 39 899
62 38 195
63 38 67
64 38 438
65 37 6
66 36 91
67 35 867
68 34 501
69 33 373
70 33 897
71 32 780
72 30 271
73 29 116
74 29 0
75 29 354
76 28 850
77 28 122
78 27 866
79 27 642
80 26 25
81 25 929
82 25 121
83 25 108
84 25 182
85 24 975
86 24 693
87 23 36
88 22 925
89 21 90
90 20 820
91 20 79
92 20 776
93 18 582
94 15 841
95 14 492
96 13 732
97 13 427
98 13 86
99 12 568
100 12 146
